NAME /Users/henri/Research/solvers/instances/idol-instances/robust/collection/cbp_Subramanyam_et_al_2020/CapBud_N30_14/models/uncertain_technology_matrix/
ROWS
 N  OBJ
 L  capacity
 L  c_6395
 L  c_6396
 L  c_6397
 L  c_6398
 L  c_6399
 L  c_6400
 L  c_6401
 L  c_6402
 L  c_6403
 L  c_6404
 L  c_6405
 L  c_6406
 L  c_6407
 L  c_6408
 L  c_6409
 L  c_6410
 L  c_6411
 L  c_6412
 L  c_6413
 L  c_6414
 L  c_6415
 L  c_6416
 L  c_6417
 L  c_6418
 L  c_6419
 L  c_6420
 L  c_6421
 L  c_6422
 L  c_6423
 L  c_6424
COLUMNS
    MARKER    'MARKER'                 'INTORG'
    x_0        OBJ        -7.93039
    x_0        c_6395     1
    x_0        capacity   1.58608
    x_1        OBJ        -3.50051
    x_1        c_6396     1
    x_1        capacity   0.700103
    x_2        OBJ        -4.39137
    x_2        c_6397     1
    x_2        capacity   0.878274
    x_3        OBJ        -4.45791
    x_3        c_6398     1
    x_3        capacity   0.891582
    x_4        OBJ        -1.74216
    x_4        c_6399     1
    x_4        capacity   0.348432
    x_5        OBJ        -4.30678
    x_5        c_6400     1
    x_5        capacity   0.861356
    x_6        OBJ        -0.746576
    x_6        c_6401     1
    x_6        capacity   0.149315
    x_7        OBJ        -6.15671
    x_7        c_6402     1
    x_7        capacity   1.23134
    x_8        OBJ        -5.26343
    x_8        c_6403     1
    x_8        capacity   1.05269
    x_9        OBJ        -1.43685
    x_9        c_6404     1
    x_9        capacity   0.287369
    x_10       OBJ        -1.80797
    x_10       c_6405     1
    x_10       capacity   0.361595
    x_11       OBJ        -1.83256
    x_11       c_6406     1
    x_11       capacity   0.366511
    x_12       OBJ        -1.02937
    x_12       c_6407     1
    x_12       capacity   0.205875
    x_13       OBJ        -9.50089
    x_13       c_6408     1
    x_13       capacity   1.90018
    x_14       OBJ        -9.18882
    x_14       c_6409     1
    x_14       capacity   1.83776
    x_15       OBJ        -6.95425
    x_15       c_6410     1
    x_15       capacity   1.39085
    x_16       OBJ        -3.63763
    x_16       c_6411     1
    x_16       capacity   0.727527
    x_17       OBJ        -6.3269
    x_17       c_6412     1
    x_17       capacity   1.26538
    x_18       OBJ        -5.46492
    x_18       c_6413     1
    x_18       capacity   1.09298
    x_19       OBJ        -9.93144
    x_19       c_6414     1
    x_19       capacity   1.98629
    x_20       OBJ        -6.66372
    x_20       c_6415     1
    x_20       capacity   1.33274
    x_21       OBJ        -0.1839
    x_21       c_6416     1
    x_21       capacity   0.0367799
    x_22       OBJ        -4.51119
    x_22       c_6417     1
    x_22       capacity   0.902237
    x_23       OBJ        -3.86856
    x_23       c_6418     1
    x_23       capacity   0.773711
    x_24       OBJ        -1.18031
    x_24       c_6419     1
    x_24       capacity   0.236062
    x_25       OBJ        -8.73081
    x_25       c_6420     1
    x_25       capacity   1.74616
    x_26       OBJ        -3.9668
    x_26       c_6421     1
    x_26       capacity   0.793359
    x_27       OBJ        -0.703521
    x_27       c_6422     1
    x_27       capacity   0.140704
    x_28       OBJ        -3.8493
    x_28       c_6423     1
    x_28       capacity   0.769859
    x_29       OBJ        -4.30807
    x_29       c_6424     1
    x_29       capacity   0.861613
    y_0        OBJ        -6.34431
    y_0        c_6395     1
    y_0        capacity   1.58608
    y_1        OBJ        -2.80041
    y_1        c_6396     1
    y_1        capacity   0.700103
    y_2        OBJ        -3.5131
    y_2        c_6397     1
    y_2        capacity   0.878274
    y_3        OBJ        -3.56633
    y_3        c_6398     1
    y_3        capacity   0.891582
    y_4        OBJ        -1.39373
    y_4        c_6399     1
    y_4        capacity   0.348432
    y_5        OBJ        -3.44542
    y_5        c_6400     1
    y_5        capacity   0.861356
    y_6        OBJ        -0.597261
    y_6        c_6401     1
    y_6        capacity   0.149315
    y_7        OBJ        -4.92537
    y_7        c_6402     1
    y_7        capacity   1.23134
    y_8        OBJ        -4.21075
    y_8        c_6403     1
    y_8        capacity   1.05269
    y_9        OBJ        -1.14948
    y_9        c_6404     1
    y_9        capacity   0.287369
    y_10       OBJ        -1.44638
    y_10       c_6405     1
    y_10       capacity   0.361595
    y_11       OBJ        -1.46604
    y_11       c_6406     1
    y_11       capacity   0.366511
    y_12       OBJ        -0.823499
    y_12       c_6407     1
    y_12       capacity   0.205875
    y_13       OBJ        -7.60071
    y_13       c_6408     1
    y_13       capacity   1.90018
    y_14       OBJ        -7.35106
    y_14       c_6409     1
    y_14       capacity   1.83776
    y_15       OBJ        -5.5634
    y_15       c_6410     1
    y_15       capacity   1.39085
    y_16       OBJ        -2.91011
    y_16       c_6411     1
    y_16       capacity   0.727527
    y_17       OBJ        -5.06152
    y_17       c_6412     1
    y_17       capacity   1.26538
    y_18       OBJ        -4.37194
    y_18       c_6413     1
    y_18       capacity   1.09298
    y_19       OBJ        -7.94515
    y_19       c_6414     1
    y_19       capacity   1.98629
    y_20       OBJ        -5.33098
    y_20       c_6415     1
    y_20       capacity   1.33274
    y_21       OBJ        -0.14712
    y_21       c_6416     1
    y_21       capacity   0.0367799
    y_22       OBJ        -3.60895
    y_22       c_6417     1
    y_22       capacity   0.902237
    y_23       OBJ        -3.09484
    y_23       c_6418     1
    y_23       capacity   0.773711
    y_24       OBJ        -0.944247
    y_24       c_6419     1
    y_24       capacity   0.236062
    y_25       OBJ        -6.98465
    y_25       c_6420     1
    y_25       capacity   1.74616
    y_26       OBJ        -3.17344
    y_26       c_6421     1
    y_26       capacity   0.793359
    y_27       OBJ        -0.562817
    y_27       c_6422     1
    y_27       capacity   0.140704
    y_28       OBJ        -3.07944
    y_28       c_6423     1
    y_28       capacity   0.769859
    y_29       OBJ        -3.44645
    y_29       c_6424     1
    y_29       capacity   0.861613
    MARKER    'MARKER'                 'INTEND'
RHS
    RHS       capacity   66.7868
    RHS       c_6395     1
    RHS       c_6396     1
    RHS       c_6397     1
    RHS       c_6398     1
    RHS       c_6399     1
    RHS       c_6400     1
    RHS       c_6401     1
    RHS       c_6402     1
    RHS       c_6403     1
    RHS       c_6404     1
    RHS       c_6405     1
    RHS       c_6406     1
    RHS       c_6407     1
    RHS       c_6408     1
    RHS       c_6409     1
    RHS       c_6410     1
    RHS       c_6411     1
    RHS       c_6412     1
    RHS       c_6413     1
    RHS       c_6414     1
    RHS       c_6415     1
    RHS       c_6416     1
    RHS       c_6417     1
    RHS       c_6418     1
    RHS       c_6419     1
    RHS       c_6420     1
    RHS       c_6421     1
    RHS       c_6422     1
    RHS       c_6423     1
    RHS       c_6424     1
BOUNDS
 LI BND       x_0        0
 UI BND       x_0        1
 LI BND       x_1        0
 UI BND       x_1        1
 LI BND       x_2        0
 UI BND       x_2        1
 LI BND       x_3        0
 UI BND       x_3        1
 LI BND       x_4        0
 UI BND       x_4        1
 LI BND       x_5        0
 UI BND       x_5        1
 LI BND       x_6        0
 UI BND       x_6        1
 LI BND       x_7        0
 UI BND       x_7        1
 LI BND       x_8        0
 UI BND       x_8        1
 LI BND       x_9        0
 UI BND       x_9        1
 LI BND       x_10       0
 UI BND       x_10       1
 LI BND       x_11       0
 UI BND       x_11       1
 LI BND       x_12       0
 UI BND       x_12       1
 LI BND       x_13       0
 UI BND       x_13       1
 LI BND       x_14       0
 UI BND       x_14       1
 LI BND       x_15       0
 UI BND       x_15       1
 LI BND       x_16       0
 UI BND       x_16       1
 LI BND       x_17       0
 UI BND       x_17       1
 LI BND       x_18       0
 UI BND       x_18       1
 LI BND       x_19       0
 UI BND       x_19       1
 LI BND       x_20       0
 UI BND       x_20       1
 LI BND       x_21       0
 UI BND       x_21       1
 LI BND       x_22       0
 UI BND       x_22       1
 LI BND       x_23       0
 UI BND       x_23       1
 LI BND       x_24       0
 UI BND       x_24       1
 LI BND       x_25       0
 UI BND       x_25       1
 LI BND       x_26       0
 UI BND       x_26       1
 LI BND       x_27       0
 UI BND       x_27       1
 LI BND       x_28       0
 UI BND       x_28       1
 LI BND       x_29       0
 UI BND       x_29       1
 LI BND       y_0        0
 UI BND       y_0        1
 LI BND       y_1        0
 UI BND       y_1        1
 LI BND       y_2        0
 UI BND       y_2        1
 LI BND       y_3        0
 UI BND       y_3        1
 LI BND       y_4        0
 UI BND       y_4        1
 LI BND       y_5        0
 UI BND       y_5        1
 LI BND       y_6        0
 UI BND       y_6        1
 LI BND       y_7        0
 UI BND       y_7        1
 LI BND       y_8        0
 UI BND       y_8        1
 LI BND       y_9        0
 UI BND       y_9        1
 LI BND       y_10       0
 UI BND       y_10       1
 LI BND       y_11       0
 UI BND       y_11       1
 LI BND       y_12       0
 UI BND       y_12       1
 LI BND       y_13       0
 UI BND       y_13       1
 LI BND       y_14       0
 UI BND       y_14       1
 LI BND       y_15       0
 UI BND       y_15       1
 LI BND       y_16       0
 UI BND       y_16       1
 LI BND       y_17       0
 UI BND       y_17       1
 LI BND       y_18       0
 UI BND       y_18       1
 LI BND       y_19       0
 UI BND       y_19       1
 LI BND       y_20       0
 UI BND       y_20       1
 LI BND       y_21       0
 UI BND       y_21       1
 LI BND       y_22       0
 UI BND       y_22       1
 LI BND       y_23       0
 UI BND       y_23       1
 LI BND       y_24       0
 UI BND       y_24       1
 LI BND       y_25       0
 UI BND       y_25       1
 LI BND       y_26       0
 UI BND       y_26       1
 LI BND       y_27       0
 UI BND       y_27       1
 LI BND       y_28       0
 UI BND       y_28       1
 LI BND       y_29       0
 UI BND       y_29       1
ENDATA
